z1,z2,z3,nondominated
232,238,577,0
114,904,386,0
324,923,159,0
332,176,513,0
312,170,570,0
934,317,167,0
49,873,518,0
611,253,208,0
73,613,460,0
20,582,761,0
155,970,353,0
558,153,341,0
334,129,710,0
415,84,817,0
118,678,355,0
481,428,129,0
791,662,7,1
315,783,141,0
190,776,253,0
67,773,443,0
386,952,127,0
843,26,584,0
388,459,162,0
150,590,332,0
852,32,563,0
41,45,16,1
35,25,37,1
17,34,55,1
34,87,14,1
50,6,88,1
